(set-logic QF_LIA)
(declare-fun x0 () Int)
(declare-fun x1 () Int)
(declare-fun x2 () Int)
(declare-fun x3 () Int)
(declare-fun x4 () Int)
(declare-fun x5 () Int)
(declare-fun x6 () Int)
(declare-fun x7 () Int)
(declare-fun x8 () Int)
(declare-fun x9 () Int)
(declare-fun A0 () Bool)
(declare-fun A1 () Bool)
(declare-fun A2 () Bool)
(declare-fun A3 () Bool)
(declare-fun A4 () Bool)
(declare-fun A5 () Bool)
(declare-fun A6 () Bool)
(declare-fun A7 () Bool)
(declare-fun A8 () Bool)
(declare-fun A9 () Bool)
(assert (let ((.def_0 (* (- 1) x8))) (let ((.def_1 (< .def_0 1))) (let ((.def_2 (* (- 1) x5))) (let ((.def_3 (* 1 x1))) (let ((.def_4 (+ .def_3 .def_2))) (let ((.def_5 (< .def_4 1))) (let ((.def_6 (not .def_5))) (let ((.def_7 (or .def_6 .def_1))) (let ((.def_8 (not A1))) (let ((.def_9 (* (- 1) x0))) (let ((.def_10 (* (- 1) x7))) (let ((.def_11 (+ .def_10 .def_9))) (let ((.def_12 (< .def_11 1))) (let ((.def_13 (and .def_12 .def_8))) (let ((.def_14 (not .def_13))) (let ((.def_15 (and .def_14 .def_7))) (let ((.def_16 (* 1 x6))) (let ((.def_17 (< .def_16 1))) (let ((.def_18 (not .def_17))) (let ((.def_19 (< .def_10 (- 1)))) (let ((.def_20 (and .def_19 .def_18))) (let ((.def_21 (not .def_20))) (let ((.def_22 (* (- 1) x3))) (let ((.def_23 (< .def_22 1))) (let ((.def_24 (not A7))) (let ((.def_25 (or .def_24 .def_23))) (let ((.def_26 (or .def_25 .def_21))) (let ((.def_27 (not .def_26))) (let ((.def_28 (and .def_27 .def_15))) (let ((.def_29 (not .def_28))) (let ((.def_30 (not A9))) (let ((.def_31 (not A0))) (let ((.def_32 (and .def_31 .def_30))) (let ((.def_33 (not .def_32))) (let ((.def_34 (and A5 A4))) (let ((.def_35 (and .def_34 .def_33))) (let ((.def_36 (not A3))) (let ((.def_37 (or .def_36 .def_30))) (let ((.def_38 (* (- 1) x6))) (let ((.def_39 (< .def_38 (- 1)))) (let ((.def_40 (not .def_39))) (let ((.def_41 (and A2 .def_40))) (let ((.def_42 (and .def_41 .def_37))) (let ((.def_43 (not .def_42))) (let ((.def_44 (and .def_43 .def_35))) (let ((.def_45 (and .def_44 .def_29))) (let ((.def_46 (not .def_45))) (let ((.def_47 (or .def_8 A8))) (let ((.def_48 (not .def_47))) (let ((.def_49 (* 1 x4))) (let ((.def_50 (< .def_49 (- 1)))) (let ((.def_51 (not .def_50))) (let ((.def_52 (and .def_51 A8))) (let ((.def_53 (and .def_52 .def_48))) (let ((.def_54 (< .def_3 (- 1)))) (let ((.def_55 (not A6))) (let ((.def_56 (= .def_55 .def_54))) (let ((.def_57 (not .def_56))) (let ((.def_58 (* (- 1) x2))) (let ((.def_59 (* 1 x9))) (let ((.def_60 (+ .def_59 .def_58))) (let ((.def_61 (< .def_60 1))) (let ((.def_62 (or A7 .def_61))) (let ((.def_63 (not .def_62))) (let ((.def_64 (and .def_63 .def_57))) (let ((.def_65 (= .def_64 .def_53))) (let ((.def_66 (* 1 x2))) (let ((.def_67 (< .def_66 1))) (let ((.def_68 (and A2 .def_67))) (let ((.def_69 (not .def_68))) (let ((.def_70 (< .def_9 (- 1)))) (let ((.def_71 (and .def_70 .def_55))) (let ((.def_72 (and .def_71 .def_69))) (let ((.def_73 (not .def_72))) (let ((.def_74 (not A2))) (let ((.def_75 (and .def_74 A2))) (let ((.def_76 (< .def_22 (- 1)))) (let ((.def_77 (not .def_76))) (let ((.def_78 (and .def_77 .def_55))) (let ((.def_79 (not .def_78))) (let ((.def_80 (or .def_79 .def_75))) (let ((.def_81 (not .def_80))) (let ((.def_82 (or .def_81 .def_73))) (let ((.def_83 (or .def_82 .def_65))) (let ((.def_84 (not .def_83))) (let ((.def_85 (or .def_84 .def_46))) (let ((.def_86 (< .def_3 1))) (let ((.def_87 (and .def_86 A0))) (let ((.def_88 (not .def_87))) (let ((.def_89 (not A5))) (let ((.def_90 (and .def_17 .def_89))) (let ((.def_91 (not .def_90))) (let ((.def_92 (or .def_91 .def_88))) (let ((.def_93 (* 1 x8))) (let ((.def_94 (+ .def_93 .def_16))) (let ((.def_95 (< .def_94 1))) (let ((.def_96 (not .def_95))) (let ((.def_97 (= .def_96 .def_36))) (let ((.def_98 (not .def_97))) (let ((.def_99 (* (- 1) x9))) (let ((.def_100 (< .def_99 (- 1)))) (let ((.def_101 (* (- 1) x1))) (let ((.def_102 (< .def_101 1))) (let ((.def_103 (and .def_102 .def_100))) (let ((.def_104 (and .def_103 .def_98))) (let ((.def_105 (not .def_104))) (let ((.def_106 (and .def_105 .def_92))) (let ((.def_107 (and A3 .def_67))) (let ((.def_108 (not .def_107))) (let ((.def_109 (< .def_2 1))) (let ((.def_110 (* 1 x3))) (let ((.def_111 (< .def_110 1))) (let ((.def_112 (not .def_111))) (let ((.def_113 (and .def_112 .def_109))) (let ((.def_114 (not .def_113))) (let ((.def_115 (or .def_114 .def_108))) (let ((.def_116 (* 1 x5))) (let ((.def_117 (+ .def_116 .def_3))) (let ((.def_118 (< .def_117 (- 1)))) (let ((.def_119 (not .def_118))) (let ((.def_120 (< .def_9 1))) (let ((.def_121 (not .def_120))) (let ((.def_122 (or .def_121 .def_119))) (let ((.def_123 (+ .def_49 .def_66))) (let ((.def_124 (< .def_123 (- 1)))) (let ((.def_125 (not .def_124))) (let ((.def_126 (< .def_66 (- 1)))) (let ((.def_127 (not .def_126))) (let ((.def_128 (and .def_127 .def_125))) (let ((.def_129 (not .def_128))) (let ((.def_130 (and .def_129 .def_122))) (let ((.def_131 (or .def_130 .def_115))) (let ((.def_132 (not .def_131))) (let ((.def_133 (and .def_132 .def_106))) (let ((.def_134 (not .def_133))) (let ((.def_135 (and A0 .def_1))) (let ((.def_136 (not .def_135))) (let ((.def_137 (* 1 x0))) (let ((.def_138 (< .def_137 (- 1)))) (let ((.def_139 (not .def_138))) (let ((.def_140 (and .def_8 .def_139))) (let ((.def_141 (or .def_140 .def_136))) (let ((.def_142 (not .def_141))) (let ((.def_143 (or .def_70 .def_36))) (let ((.def_144 (not .def_143))) (let ((.def_145 (< .def_93 1))) (let ((.def_146 (not .def_145))) (let ((.def_147 (or A8 .def_146))) (let ((.def_148 (not .def_147))) (let ((.def_149 (and .def_148 .def_144))) (let ((.def_150 (and .def_149 .def_142))) (let ((.def_151 (not .def_150))) (let ((.def_152 (or A1 .def_121))) (let ((.def_153 (not .def_152))) (let ((.def_154 (not .def_1))) (let ((.def_155 (and .def_154 .def_30))) (let ((.def_156 (not .def_155))) (let ((.def_157 (= .def_156 .def_153))) (let ((.def_158 (< .def_117 1))) (let ((.def_159 (or .def_31 .def_158))) (let ((.def_160 (+ .def_38 .def_2))) (let ((.def_161 (< .def_160 (- 1)))) (let ((.def_162 (not .def_161))) (let ((.def_163 (and .def_30 .def_162))) (let ((.def_164 (= .def_163 .def_159))) (let ((.def_165 (not .def_164))) (let ((.def_166 (or .def_165 .def_157))) (let ((.def_167 (or .def_166 .def_151))) (let ((.def_168 (and .def_167 .def_134))) (let ((.def_169 (or .def_168 .def_85))) (let ((.def_170 (not .def_169))) (let ((.def_171 (or A0 A6))) (let ((.def_172 (+ .def_58 .def_116))) (let ((.def_173 (< .def_172 1))) (let ((.def_174 (or .def_173 A3))) (let ((.def_175 (not .def_174))) (let ((.def_176 (or .def_175 .def_171))) (let ((.def_177 (+ .def_110 .def_66))) (let ((.def_178 (< .def_177 1))) (let ((.def_179 (and A7 .def_178))) (let ((.def_180 (not .def_179))) (let ((.def_181 (+ .def_137 .def_49))) (let ((.def_182 (< .def_181 1))) (let ((.def_183 (and A7 .def_182))) (let ((.def_184 (not .def_183))) (let ((.def_185 (and .def_184 .def_180))) (let ((.def_186 (not .def_185))) (let ((.def_187 (or .def_186 .def_176))) (let ((.def_188 (< .def_49 1))) (let ((.def_189 (not .def_188))) (let ((.def_190 (not A8))) (let ((.def_191 (or .def_190 .def_189))) (let ((.def_192 (not .def_191))) (let ((.def_193 (and A8 .def_31))) (let ((.def_194 (not .def_193))) (let ((.def_195 (and .def_194 .def_192))) (let ((.def_196 (not .def_171))) (let ((.def_197 (and .def_146 A6))) (let ((.def_198 (not .def_197))) (let ((.def_199 (or .def_198 .def_196))) (let ((.def_200 (and .def_199 .def_195))) (let ((.def_201 (and .def_200 .def_187))) (let ((.def_202 (not .def_201))) (let ((.def_203 (and A9 .def_54))) (let ((.def_204 (+ .def_38 .def_99))) (let ((.def_205 (< .def_204 1))) (let ((.def_206 (not .def_205))) (let ((.def_207 (and .def_206 .def_30))) (let ((.def_208 (and .def_207 .def_203))) (let ((.def_209 (< .def_116 (- 1)))) (let ((.def_210 (not .def_209))) (let ((.def_211 (or .def_139 .def_210))) (let ((.def_212 (not .def_211))) (let ((.def_213 (< .def_58 (- 1)))) (let ((.def_214 (and A2 .def_213))) (let ((.def_215 (or .def_214 .def_212))) (let ((.def_216 (not .def_215))) (let ((.def_217 (or .def_216 .def_208))) (let ((.def_218 (< .def_38 1))) (let ((.def_219 (not .def_218))) (let ((.def_220 (= .def_23 .def_219))) (let ((.def_221 (not .def_220))) (let ((.def_222 (+ .def_2 .def_110))) (let ((.def_223 (< .def_222 (- 1)))) (let ((.def_224 (and .def_223 A5))) (let ((.def_225 (not .def_224))) (let ((.def_226 (or .def_225 .def_221))) (let ((.def_227 (not .def_226))) (let ((.def_228 (+ .def_38 .def_116))) (let ((.def_229 (< .def_228 1))) (let ((.def_230 (and .def_229 A6))) (let ((.def_231 (+ .def_110 .def_38))) (let ((.def_232 (< .def_231 (- 1)))) (let ((.def_233 (+ .def_3 .def_9))) (let ((.def_234 (< .def_233 1))) (let ((.def_235 (not .def_234))) (let ((.def_236 (or .def_235 .def_232))) (let ((.def_237 (not .def_236))) (let ((.def_238 (= .def_237 .def_230))) (let ((.def_239 (not .def_238))) (let ((.def_240 (and .def_239 .def_227))) (let ((.def_241 (or .def_240 .def_217))) (let ((.def_242 (not .def_241))) (let ((.def_243 (and .def_242 .def_202))) (let ((.def_244 (< .def_116 1))) (let ((.def_245 (not .def_244))) (let ((.def_246 (or .def_74 .def_245))) (let ((.def_247 (not .def_246))) (let ((.def_248 (and A4 .def_112))) (let ((.def_249 (or .def_248 .def_247))) (let ((.def_250 (< .def_101 (- 1)))) (let ((.def_251 (not .def_250))) (let ((.def_252 (or .def_24 .def_251))) (let ((.def_253 (not .def_252))) (let ((.def_254 (+ .def_137 .def_0))) (let ((.def_255 (< .def_254 1))) (let ((.def_256 (and .def_255 .def_36))) (let ((.def_257 (not .def_256))) (let ((.def_258 (and .def_257 .def_253))) (let ((.def_259 (or .def_258 .def_249))) (let ((.def_260 (not .def_259))) (let ((.def_261 (and .def_8 .def_36))) (let ((.def_262 (+ .def_22 .def_137))) (let ((.def_263 (< .def_262 (- 1)))) (let ((.def_264 (not .def_263))) (let ((.def_265 (and .def_264 A3))) (let ((.def_266 (not .def_265))) (let ((.def_267 (= .def_266 .def_261))) (let ((.def_268 (not .def_267))) (let ((.def_269 (and .def_8 A9))) (let ((.def_270 (or .def_8 .def_74))) (let ((.def_271 (or .def_270 .def_269))) (let ((.def_272 (not .def_271))) (let ((.def_273 (or .def_272 .def_268))) (let ((.def_274 (not .def_273))) (let ((.def_275 (or .def_274 .def_260))) (let ((.def_276 (or A0 .def_190))) (let ((.def_277 (not .def_276))) (let ((.def_278 (and .def_36 .def_30))) (let ((.def_279 (not .def_278))) (let ((.def_280 (or .def_279 .def_277))) (let ((.def_281 (+ .def_2 .def_16))) (let ((.def_282 (< .def_281 (- 1)))) (let ((.def_283 (and .def_31 .def_282))) (let ((.def_284 (or .def_188 .def_250))) (let ((.def_285 (or .def_284 .def_283))) (let ((.def_286 (or .def_285 .def_280))) (let ((.def_287 (not .def_286))) (let ((.def_288 (* (- 1) x4))) (let ((.def_289 (+ .def_288 .def_58))) (let ((.def_290 (< .def_289 1))) (let ((.def_291 (not .def_290))) (let ((.def_292 (+ .def_3 .def_110))) (let ((.def_293 (< .def_292 (- 1)))) (let ((.def_294 (or .def_293 .def_291))) (let ((.def_295 (not .def_294))) (let ((.def_296 (not .def_158))) (let ((.def_297 (and .def_36 .def_296))) (let ((.def_298 (not .def_297))) (let ((.def_299 (and .def_298 .def_295))) (let ((.def_300 (not .def_299))) (let ((.def_301 (+ .def_110 .def_99))) (let ((.def_302 (< .def_301 1))) (let ((.def_303 (not .def_302))) (let ((.def_304 (< .def_93 (- 1)))) (let ((.def_305 (or .def_304 .def_303))) (let ((.def_306 (not .def_305))) (let ((.def_307 (+ .def_10 .def_66))) (let ((.def_308 (< .def_307 (- 1)))) (let ((.def_309 (and A1 .def_308))) (let ((.def_310 (not .def_309))) (let ((.def_311 (or .def_310 .def_306))) (let ((.def_312 (and .def_311 .def_300))) (let ((.def_313 (and .def_312 .def_287))) (let ((.def_314 (not .def_313))) (let ((.def_315 (and .def_314 .def_275))) (let ((.def_316 (and .def_315 .def_243))) (let ((.def_317 (not .def_316))) (let ((.def_318 (and .def_317 .def_170))) (let ((.def_319 (not .def_318))) (let ((.def_320 (<= x9 1))) (let ((.def_321 (<= 0 x9))) (let ((.def_322 (<= x8 1))) (let ((.def_323 (<= 0 x8))) (let ((.def_324 (<= x7 1))) (let ((.def_325 (<= 0 x7))) (let ((.def_326 (<= x6 1))) (let ((.def_327 (<= 0 x6))) (let ((.def_328 (<= x5 1))) (let ((.def_329 (<= 0 x5))) (let ((.def_330 (<= x4 1))) (let ((.def_331 (<= 0 x4))) (let ((.def_332 (<= x3 1))) (let ((.def_333 (<= 0 x3))) (let ((.def_334 (<= x2 1))) (let ((.def_335 (<= 0 x2))) (let ((.def_336 (<= x1 1))) (let ((.def_337 (<= 0 x1))) (let ((.def_338 (<= x0 1))) (let ((.def_339 (<= 0 x0))) (let ((.def_340 (and .def_339 .def_338 .def_337 .def_336 .def_335 .def_334 .def_333 .def_332 .def_331 .def_330 .def_329 .def_328 .def_327 .def_326 .def_325 .def_324 .def_323 .def_322 .def_321 .def_320 .def_319))) .def_340))))))))))))))))))))))))))))))))))))))))))))))))))))))))))))))))))))))))))))))))))))))))))))))))))))))))))))))))))))))))))))))))))))))))))))))))))))))))))))))))))))))))))))))))))))))))))))))))))))))))))))))))))))))))))))))))))))))))))))))))))))))))))))))))))))))))))))))))))))))))))))))))))))))))))))))))))))))))))))))))))))))))))))))))))))))
(check-sat)
